p cnf 4 38
5 12 0
-12 13 0
6 -12 14 0
-14 15 0
7 -14 16 0
-16 17 0
8 -16 0
6 13 0
-13 18 0
7 -13 15 0
-15 19 0
8 -15 17 0
-17 20 0
9 -17 0
7 18 0
-18 21 0
8 -18 19 0
-19 22 0
9 -19 20 0
-20 23 0
10 -20 0
8 21 0
9 -21 22 0
10 -22 23 0
11 -23 0
1 -5 0
-1 -2 -5 0
-3 -6 0
3 -4 -6 0
1 -7 0
-1 -3 -7 0
-1 3 4 -7 0
-1 -8 0
1 3 -8 0
1 -3 4 -8 0
9 0
10 0
11 0
